(declare-const |main__x':94:141:173| Int)
(declare-const |main__x':94:132:164| Int)
(declare-const |main____CPAchecker_TMP_1___0':293| Int)
(declare-const |phi___tmp_28_0:151:178| Int)
(declare-const |main__x':94:157:189| Int)
(declare-const |main____CPAchecker_TMP_0___0':97:155:187| Int)
(declare-const |phi___tmp_28_0:138:166| Int)
(declare-const havoc Int)
(declare-const |main__y':95| Int)
(declare-const |__tmp_28_0':115:143:175| Int)
(declare-const |__tmp_25_0':289| Int)
(declare-const |phi_main__x:149:180| Int)
(declare-const |main____CPAchecker_TMP_0':96:145:177| Int)
(declare-const |__tmp_31_0':93:129:161| Int)
(declare-const |phi___tmp_31_0:150:179| Int)
(declare-const main____CPAchecker_TMP_0 Int)
(declare-const |main____CPAchecker_TMP_0':96| Int)
(declare-const |phi_main__x:136:168| Int)
(declare-const |phi_main__y:148:181| Int)
(declare-const |phi_main____CPAchecker_TMP_0___0:134:170| Int)
(declare-const |__tmp_22_0':291| Int)
(declare-const |phi___tmp_31_0:137:167| Int)
(declare-const |havoc:13:92:158:190| Int)
(declare-const |havoc:13:92:133:165| Int)
(declare-const |__tmp_31_0':93:154:186| Int)
(declare-const |K:107:127:159| Int)
(declare-const |__tmp_28_0':115| Int)
(declare-const |K:107:152:184| Int)
(declare-const |main____CPAchecker_TMP_1':292| Int)
(declare-const __tmp_25_1 Int)
(declare-const |main__y':95:156:188| Int)
(declare-const |main__y':95:142:174| Int)
(declare-const |phi_main____CPAchecker_TMP_0___0:146:183| Int)
(declare-const main____CPAchecker_TMP_1 Int)
(declare-const main____CPAchecker_TMP_1___0 Int)
(declare-const |main____CPAchecker_TMP_0___0':97:130:162| Int)
(declare-const main____CPAchecker_TMP_0___0 Int)
(declare-const |__tmp_25_1':288| Int)
(declare-const |main____CPAchecker_TMP_0':96:128:160| Int)
(declare-const |phi_main____CPAchecker_TMP_0:135:169| Int)
(declare-const |__tmp_31_0':93:140:172| Int)
(declare-const __tmp_25_0 Int)
(declare-const |__tmp_22_1':290| Int)
(declare-const |main____CPAchecker_TMP_0':96:153:185| Int)
(declare-const |K:307| Int)
(declare-const |havoc:2:191| Int)
(declare-const |phi_main____CPAchecker_TMP_0:147:182| Int)
(declare-const |main____CPAchecker_TMP_0___0':97:144:176| Int)
(declare-const __tmp_22_1 Int)
(declare-const __tmp_28_0 Int)
(declare-const |main__x':94| Int)
(declare-const |__tmp_31_0':93| Int)
(declare-const __tmp_22_0 Int)
(declare-const |K:126:139:171| Int)
(declare-const |main____CPAchecker_TMP_0___0':97| Int)
(declare-const |main__y':95:131:163| Int)
(declare-const __tmp_31_0 Int)
(assert (and (or (not (and (<= (- |K:307|) 0) (<= |K:307| 0)))
                   (= (+ |main__y':95| -1) 0))
               (or (not (<= (+ (- |K:307|) 1) 0)) (= (+ |main__y':95| -1) 0))
               (or (not (<= (- |K:307|) 0))
                     (<= (+ (- havoc) |main__x':94| (* -7 |K:307|)) 0))
               (or (not (<= (- |K:307|) 0))
                     (<= (+ havoc (- |main__x':94|) (* 4 |K:307|)) 0))
               (or (and (= |K:307| 0)
                          (= (+ (- |main____CPAchecker_TMP_1___0':293|)
                                  main____CPAchecker_TMP_1___0) 0)
                          (= (+ (- |main____CPAchecker_TMP_1':292|)
                                  main____CPAchecker_TMP_1) 0)
                          (= (+ (- |main____CPAchecker_TMP_0___0':97|)
                                  main____CPAchecker_TMP_0___0) 0)
                          (= (+ (- |main____CPAchecker_TMP_0':96|)
                                  main____CPAchecker_TMP_0) 0)
                          (= (+ (- |main__y':95|) 1) 0)
                          (= (+ havoc (- |main__x':94|)) 0)
                          (= (+ (- |__tmp_31_0':93|) __tmp_31_0) 0)
                          (= (+ (- |__tmp_28_0':115|) __tmp_28_0) 0)
                          (= (+ (- |__tmp_22_0':291|) __tmp_22_0) 0)
                          (= (+ (- |__tmp_22_1':290|) __tmp_22_1) 0)
                          (= (+ (- |__tmp_25_0':289|) __tmp_25_0) 0)
                          (= (+ (- |__tmp_25_1':288|) __tmp_25_1) 0))
                     (and (<= (+ (- |K:307|) 1) 0)
                            (<= (+ (mod (+ havoc 2) 3)
                                     (* 2 (mod (+ havoc 1) 3))
                                     (* 2 (mod havoc 3)) -6) 0)
                            (<= (+ (mod (+ havoc 1) 3) (* 2 (mod havoc 3)) -4) 0)
                            (<= (+ (mod (+ havoc 1) 3) -2) 0)
                            (<= (+ (mod (+ havoc 2) 3) -2) 0)
                            (<= (- (mod (+ havoc 2) 3)) 0)
                            (<= (- (mod (+ havoc 1) 3)) 0)
                            (<= (- (mod havoc 3)) 0)
                            (= (+ |main__y':95| -1) 0))) (<= (- |K:307|) 0)
               (< (- |main__y':95|) 0) (= (+ |main__y':95| -1) 0)
               (not (= |havoc:2:191| 0))
               (or (and (or (and (= (+ (mod |main__x':94| 3) -1) 0)
                                   (or (not (and (<= (- |K:107:127:159|) 0)
                                                   (<= |K:107:127:159| 0)))
                                         (= (+ (- |__tmp_31_0':93:129:161|)
                                                 |main____CPAchecker_TMP_0':96:128:160|) 0))
                                   (or (not (<= (+ (- |K:107:127:159|) 1) 0))
                                         (= (+ (- |__tmp_31_0':93:129:161|)
                                                 |main____CPAchecker_TMP_0':96:128:160|) 0))
                                   (or (not (and (<= (- |K:107:127:159|) 0)
                                                   (<= |K:107:127:159| 0)))
                                         (= (+ |main____CPAchecker_TMP_0___0':97:130:162|
                                                 (- |__tmp_31_0':93:129:161|)
                                                 |havoc:2:191|
                                                 (- |main____CPAchecker_TMP_0___0':97|)) 0))
                                   (or (not (<= (+ (- |K:107:127:159|) 1) 0))
                                         (= (+ |main____CPAchecker_TMP_0___0':97:130:162|
                                                 (- |__tmp_31_0':93:129:161|)) 0))
                                   (or (not (and (<= (- |K:107:127:159|) 0)
                                                   (<= |K:107:127:159| 0)))
                                         (= |main__y':95:131:163| 0))
                                   (or (not (<= (+ (- |K:107:127:159|) 1) 0))
                                         (= |main__y':95:131:163| 0))
                                   (or (not (<= (- |K:107:127:159|) 0))
                                         (= (+ |main__x':94:132:164|
                                                 (* -2 |K:107:127:159|)
                                                 (- |main__x':94|) -2) 0))
                                   (or (and (= |K:107:127:159| 0)
                                              (= (+ (- |main____CPAchecker_TMP_0___0':97:130:162|)
                                                      |main____CPAchecker_TMP_0___0':97|) 0)
                                              (= (+ (- |main____CPAchecker_TMP_0':96:128:160|)
                                                      |havoc:2:191|) 0)
                                              (= (- |main__y':95:131:163|) 0)
                                              (= (+ (- |main__x':94:132:164|)
                                                      |main__x':94| 2) 0)
                                              (= (+ (- |__tmp_31_0':93:129:161|)
                                                      |havoc:2:191|) 0))
                                         (and (<= (+ (- |K:107:127:159|) 1) 0)
                                                (= (+ (mod (+ |main__x':94| 2)
                                                           3) -1) 0)
                                                (= (+ (- |main____CPAchecker_TMP_0___0':97:130:162|)
                                                        |__tmp_31_0':93:129:161|) 0)
                                                (= (+ (- |main____CPAchecker_TMP_0___0':97:130:162|)
                                                        |main____CPAchecker_TMP_0':96:128:160|) 0)
                                                (= |main__y':95:131:163| 0)
                                                (= (+ (mod (+ |main__x':94:132:164|
                                                                -2)
                                                           3) -1) 0)))
                                   (<= (- |K:107:127:159|) 0)
                                   (= |main__y':95:131:163| 0)
                                   (= |main__y':95:131:163| 0)
                                   (not (= |havoc:13:92:133:165| 0))
                                   (not (= (+ (mod |main__x':94:132:164| 3)
                                                -1) 0))
                                   (= (+ (mod |main__x':94:132:164| 3) -2) 0)
                                   (= (+ (- |phi___tmp_28_0:138:166|)
                                           |havoc:13:92:133:165|) 0)
                                   (= (+ (- |phi___tmp_31_0:137:167|)
                                           |__tmp_31_0':93:129:161|) 0)
                                   (= (+ (- |phi_main__x:136:168|)
                                           |main__x':94:132:164| 1) 0)
                                   (= (+ (- |phi_main____CPAchecker_TMP_0:135:169|)
                                           |main____CPAchecker_TMP_0':96:128:160|) 0)
                                   (= (+ (- |phi_main____CPAchecker_TMP_0___0:134:170|)
                                           |havoc:13:92:133:165|) 0))
                              (and (not (= (+ (mod |main__x':94| 3) -1) 0))
                                     (= (+ (mod |main__x':94| 3) -2) 0)
                                     (= (+ (- |phi___tmp_28_0:138:166|)
                                             |havoc:2:191|) 0)
                                     (= (+ (- |phi___tmp_31_0:137:167|)
                                             |__tmp_31_0':93|) 0)
                                     (= (+ (- |phi_main__x:136:168|)
                                             |main__x':94| 1) 0)
                                     (= (+ (- |phi_main____CPAchecker_TMP_0:135:169|)
                                             |havoc:2:191|) 0)
                                     (= (+ (- |phi_main____CPAchecker_TMP_0___0:134:170|)
                                             |main____CPAchecker_TMP_0___0':97|) 0)))
                          (or (not (<= (- |K:126:139:171|) 0))
                                (= (+ |__tmp_31_0':93:140:172|
                                        (- |phi___tmp_31_0:137:167|)) 0))
                          (or (not (<= (- |K:126:139:171|) 0))
                                (= (+ |main__x':94:141:173|
                                        (- |K:126:139:171|)
                                        (- |phi_main__x:136:168|)) 0))
                          (or (not (and (<= (- |K:126:139:171|) 0)
                                          (<= |K:126:139:171| 0)))
                                (= |main__y':95:142:174| 0))
                          (or (not (<= (+ (- |K:126:139:171|) 1) 0))
                                (= |main__y':95:142:174| 0))
                          (or (not (and (<= (- |K:126:139:171|) 0)
                                          (<= |K:126:139:171| 0)))
                                (= (+ (- |main____CPAchecker_TMP_0___0':97:144:176|)
                                        |__tmp_28_0':115:143:175|
                                        |phi_main____CPAchecker_TMP_0___0:134:170|
                                        (- |phi___tmp_28_0:138:166|)) 0))
                          (or (not (<= (+ (- |K:126:139:171|) 1) 0))
                                (= (+ (- |main____CPAchecker_TMP_0___0':97:144:176|)
                                        |__tmp_28_0':115:143:175|) 0))
                          (or (and (= |K:126:139:171| 0)
                                     (= (+ (- |main____CPAchecker_TMP_0___0':97:144:176|)
                                             |phi_main____CPAchecker_TMP_0___0:134:170|) 0)
                                     (= (+ (- |main____CPAchecker_TMP_0':96:145:177|)
                                             |phi_main____CPAchecker_TMP_0:135:169|) 0)
                                     (= (- |main__y':95:142:174|) 0)
                                     (= (+ (- |main__x':94:141:173|)
                                             |phi_main__x:136:168|) 0)
                                     (= (+ (- |__tmp_31_0':93:140:172|)
                                             |phi___tmp_31_0:137:167|) 0)
                                     (= (+ (- |__tmp_28_0':115:143:175|)
                                             |phi___tmp_28_0:138:166|) 0))
                                (and (<= (+ (- |K:126:139:171|) 1) 0)
                                       (= (+ (mod |phi_main__x:136:168| 3) -2) 0)
                                       (= (+ (- |main____CPAchecker_TMP_0___0':97:144:176|)
                                               |__tmp_28_0':115:143:175|) 0)
                                       (= (+ (mod (+ |main__x':94:141:173| -1)
                                                  3) -2) 0)
                                       (= |main__y':95:142:174| 0)))
                          (<= (- |K:126:139:171|) 0)
                          (= |main__y':95:142:174| 0)
                          (= |main__y':95:142:174| 0)
                          (= (+ (- |phi___tmp_28_0:151:178|)
                                  |__tmp_28_0':115:143:175|) 0)
                          (= (+ (- |phi___tmp_31_0:150:179|)
                                  |__tmp_31_0':93:140:172|) 0)
                          (= (+ (- |phi_main__x:149:180|)
                                  |main__x':94:141:173|) 0)
                          (= (+ (- |phi_main__y:148:181|)
                                  |main__y':95:142:174|) 0)
                          (= (+ (- |phi_main____CPAchecker_TMP_0:147:182|)
                                  |__tmp_28_0':115:143:175|) 0)
                          (= (+ (- |phi_main____CPAchecker_TMP_0___0:146:183|)
                                  |main____CPAchecker_TMP_0___0':97:144:176|) 0))
                     (and (= (+ (mod |main__x':94| 3) -1) 0)
                            (= (+ (- |phi___tmp_28_0:151:178|)
                                    |__tmp_28_0':115|) 0)
                            (= (+ (- |phi___tmp_31_0:150:179|) |havoc:2:191|) 0)
                            (= (+ (- |phi_main__x:149:180|) |main__x':94| 2) 0)
                            (= (- |phi_main__y:148:181|) 0)
                            (= (+ (- |phi_main____CPAchecker_TMP_0:147:182|)
                                    |havoc:2:191|) 0)
                            (= (+ (- |phi_main____CPAchecker_TMP_0___0:146:183|)
                                    |main____CPAchecker_TMP_0___0':97|) 0)))
               (or (not (and (<= (- |K:107:152:184|) 0)
                               (<= |K:107:152:184| 0)))
                     (= (+ (- |__tmp_31_0':93:154:186|)
                             |main____CPAchecker_TMP_0':96:153:185|
                             (- |phi_main____CPAchecker_TMP_0:147:182|)
                             |phi___tmp_31_0:150:179|) 0))
               (or (not (<= (+ (- |K:107:152:184|) 1) 0))
                     (= (+ (- |__tmp_31_0':93:154:186|)
                             |main____CPAchecker_TMP_0':96:153:185|) 0))
               (or (not (and (<= (- |K:107:152:184|) 0)
                               (<= |K:107:152:184| 0)))
                     (= (+ |main____CPAchecker_TMP_0___0':97:155:187|
                             (- |__tmp_31_0':93:154:186|)
                             (- |phi_main____CPAchecker_TMP_0___0:146:183|)
                             |phi___tmp_31_0:150:179|) 0))
               (or (not (<= (+ (- |K:107:152:184|) 1) 0))
                     (= (+ |main____CPAchecker_TMP_0___0':97:155:187|
                             (- |__tmp_31_0':93:154:186|)) 0))
               (or (not (and (<= (- |K:107:152:184|) 0)
                               (<= |K:107:152:184| 0)))
                     (= (+ |main__y':95:156:188| (- |phi_main__y:148:181|)) 0))
               (or (not (<= (+ (- |K:107:152:184|) 1) 0))
                     (= |main__y':95:156:188| 0))
               (or (not (<= (- |K:107:152:184|) 0))
                     (= (+ |main__x':94:157:189| (* -2 |K:107:152:184|)
                             (- |phi_main__x:149:180|)) 0))
               (or (and (= |K:107:152:184| 0)
                          (= (+ (- |main____CPAchecker_TMP_0___0':97:155:187|)
                                  |phi_main____CPAchecker_TMP_0___0:146:183|) 0)
                          (= (+ (- |main____CPAchecker_TMP_0':96:153:185|)
                                  |phi_main____CPAchecker_TMP_0:147:182|) 0)
                          (= (+ (- |main__y':95:156:188|)
                                  |phi_main__y:148:181|) 0)
                          (= (+ (- |main__x':94:157:189|)
                                  |phi_main__x:149:180|) 0)
                          (= (+ (- |__tmp_31_0':93:154:186|)
                                  |phi___tmp_31_0:150:179|) 0))
                     (and (<= (+ (- |K:107:152:184|) 1) 0)
                            (= |phi_main__y:148:181| 0)
                            (= (+ (mod |phi_main__x:149:180| 3) -1) 0)
                            (= (+ (- |main____CPAchecker_TMP_0___0':97:155:187|)
                                    |__tmp_31_0':93:154:186|) 0)
                            (= (+ (- |main____CPAchecker_TMP_0___0':97:155:187|)
                                    |main____CPAchecker_TMP_0':96:153:185|) 0)
                            (= |main__y':95:156:188| 0)
                            (= (+ (mod (+ |main__x':94:157:189| -2) 3) -1) 0)))
               (<= (- |K:107:152:184|) 0) (= |main__y':95:156:188| 0)
               (= |main__y':95:156:188| 0) (= |havoc:13:92:158:190| 0)
               (= |main__y':95:156:188| 0)
               (= (ite (= (mod |main__x':94:157:189| 3) 0) 1 0) 0)))
(check-sat)
